objective value:                                12045
t_x_0                                               1 	(obj:43)
t_x_1                                               1 	(obj:40)
t_x_2                                               1 	(obj:5)
t_x_5                                               1 	(obj:15)
t_x_8                                               1 	(obj:3)
t_x_10                                              1 	(obj:65)
t_x_11                                              1 	(obj:23)
t_x_14                                              1 	(obj:9)
t_x_16                                              1 	(obj:49)
t_x_17                                              1 	(obj:2)
t_x_18                                              1 	(obj:60)
t_x_22                                              1 	(obj:5)
t_x_24                                              1 	(obj:36)
t_x_25                                              1 	(obj:54)
t_x_26                                              1 	(obj:11)
t_x_27                                              1 	(obj:16)
t_x_28                                              1 	(obj:6)
t_x_30                                              1 	(obj:18)
t_x_31                                              1 	(obj:18)
t_x_32                                              1 	(obj:17)
t_x_35                                              1 	(obj:17)
t_x_36                                              1 	(obj:11)
t_x_39                                              1 	(obj:29)
t_x_41                                              1 	(obj:51)
t_x_43                                              1 	(obj:10)
t_x_44                                              1 	(obj:31)
t_x_45                                              1 	(obj:3)
t_x_47                                              1 	(obj:21)
t_x_49                                              1 	(obj:23)
t_x_50                                              1 	(obj:35)
t_x_51                                              1 	(obj:33)
t_x_55                                              1 	(obj:9)
t_x_57                                              1 	(obj:5)
t_x_59                                              1 	(obj:0)
t_x_60                                              1 	(obj:42)
t_x_62                                              1 	(obj:1)
t_x_64                                              1 	(obj:38)
t_x_66                                              1 	(obj:8)
t_x_67                                              1 	(obj:8)
t_x_73                                              1 	(obj:35)
t_x_74                                              1 	(obj:9)
t_x_75                                              1 	(obj:58)
t_x_81                                              1 	(obj:40)
t_x_84                                              1 	(obj:9)
t_x_88                                              1 	(obj:24)
t_x_89                                              1 	(obj:37)
t_x_91                                              1 	(obj:13)
t_x_94                                              1 	(obj:31)
t_x_97                                              1 	(obj:42)
t_x_98                                              1 	(obj:54)
t_x_102                                             1 	(obj:41)
t_x_103                                             1 	(obj:5)
t_x_104                                             1 	(obj:4)
t_x_107                                             1 	(obj:1)
t_x_111                                             1 	(obj:39)
t_x_113                                             1 	(obj:34)
t_x_116                                             1 	(obj:20)
t_x_119                                             1 	(obj:8)
t_x_125                                             1 	(obj:69)
t_x_126                                             1 	(obj:11)
t_x_130                                             1 	(obj:14)
t_x_134                                             1 	(obj:11)
t_x_135                                             1 	(obj:20)
t_x_136                                             1 	(obj:11)
t_x_138                                             1 	(obj:10)
t_x_142                                             1 	(obj:6)
t_x_143                                             1 	(obj:43)
t_x_146                                             1 	(obj:37)
t_x_147                                             1 	(obj:29)
t_x_148                                             1 	(obj:35)
t_x_150                                             1 	(obj:46)
t_x_153                                             1 	(obj:16)
t_x_155                                             1 	(obj:4)
t_x_158                                             1 	(obj:19)
t_x_160                                             1 	(obj:65)
t_x_161                                             1 	(obj:43)
t_x_163                                             1 	(obj:1)
t_x_166                                             1 	(obj:1)
t_x_167                                             1 	(obj:33)
t_x_170                                             1 	(obj:42)
t_x_171                                             1 	(obj:32)
t_x_175                                             1 	(obj:7)
t_x_182                                             1 	(obj:51)
t_x_184                                             1 	(obj:24)
t_x_193                                             1 	(obj:7)
t_x_203                                             1 	(obj:21)
t_x_204                                             1 	(obj:39)
t_x_205                                             1 	(obj:23)
t_x_206                                             1 	(obj:4)
t_x_208                                             1 	(obj:20)
t_x_210                                             1 	(obj:0)
t_x_212                                             1 	(obj:0)
t_x_219                                             1 	(obj:5)
t_x_220                                             1 	(obj:30)
t_x_227                                             1 	(obj:29)
t_x_228                                             1 	(obj:25)
t_x_233                                             1 	(obj:44)
t_x_234                                             1 	(obj:21)
t_x_239                                             1 	(obj:2)
t_x_242                                             1 	(obj:32)
t_x_247                                             1 	(obj:24)
t_x_263                                             1 	(obj:1)
t_x_265                                             1 	(obj:1)
t_x_267                                             1 	(obj:26)
t_x_272                                             1 	(obj:14)
t_x_276                                             1 	(obj:24)
t_x_278                                             1 	(obj:13)
t_x_280                                             1 	(obj:13)
t_x_285                                             1 	(obj:5)
t_x_288                                             1 	(obj:75)
t_x_289                                             1 	(obj:33)
t_x_291                                             1 	(obj:7)
t_x_303                                             1 	(obj:7)
t_x_310                                             1 	(obj:19)
t_x_312                                             1 	(obj:2)
t_x_314                                             1 	(obj:29)
t_x_325                                             1 	(obj:57)
t_x_332                                             1 	(obj:18)
t_x_333                                             1 	(obj:1)
t_x_334                                             1 	(obj:6)
t_x_348                                             1 	(obj:10)
t_x_349                                             1 	(obj:14)
t_x_350                                             1 	(obj:17)
t_x_362                                             1 	(obj:8)
t_x_363                                             1 	(obj:23)
t_x_364                                             1 	(obj:4)
t_x_366                                             1 	(obj:14)
t_x_372                                             1 	(obj:11)
t_x_377                                             1 	(obj:22)
t_x_379                                             1 	(obj:23)
t_x_380                                             1 	(obj:36)
t_x_381                                             1 	(obj:4)
t_x_382                                             1 	(obj:28)
t_x_383                                             1 	(obj:19)
t_x_391                                             1 	(obj:3)
t_x_392                                             1 	(obj:2)
t_x_394                                             1 	(obj:46)
t_x_395                                             1 	(obj:7)
t_x_397                                             1 	(obj:14)
t_x_401                                             1 	(obj:28)
t_x_402                                             1 	(obj:32)
t_x_413                                             1 	(obj:21)
t_x_414                                             1 	(obj:24)
t_x_416                                             1 	(obj:34)
t_x_425                                             1 	(obj:9)
t_x_427                                             1 	(obj:11)
t_x_429                                             1 	(obj:21)
t_x_436                                             1 	(obj:12)
t_x_438                                             1 	(obj:23)
t_x_440                                             1 	(obj:11)
t_x_445                                             1 	(obj:12)
t_x_446                                             1 	(obj:18)
t_x_450                                             1 	(obj:8)
t_x_452                                             1 	(obj:9)
t_x_454                                             1 	(obj:17)
t_x_455                                             1 	(obj:18)
t_x_457                                             1 	(obj:6)
t_x_461                                             1 	(obj:14)
t_x_462                                             1 	(obj:40)
t_x_465                                             1 	(obj:18)
t_x_468                                             1 	(obj:47)
t_x_469                                             1 	(obj:27)
t_x_470                                             1 	(obj:2)
t_x_478                                             1 	(obj:23)
t_x_487                                             1 	(obj:14)
t_x_489                                             1 	(obj:1)
t_x_494                                             1 	(obj:12)
t_x_495                                             1 	(obj:42)
t_x_499                                             1 	(obj:38)
t_x_502                                             1 	(obj:20)
t_x_505                                             1 	(obj:13)
t_x_508                                             1 	(obj:2)
t_x_509                                             1 	(obj:31)
t_x_511                                             1 	(obj:7)
t_x_514                                             1 	(obj:26)
t_x_516                                             1 	(obj:38)
t_x_520                                             1 	(obj:14)
t_x_523                                             1 	(obj:90)
t_x_524                                             1 	(obj:81)
t_x_526                                             1 	(obj:4)
t_x_528                                             1 	(obj:0)
t_x_534                                             1 	(obj:2)
t_x_538                                             1 	(obj:19)
t_x_539                                             1 	(obj:23)
t_x_541                                             1 	(obj:7)
t_x_547                                             1 	(obj:2)
t_x_549                                             1 	(obj:13)
t_x_553                                             1 	(obj:28)
t_x_557                                             1 	(obj:17)
t_x_560                                             1 	(obj:2)
t_x_562                                             1 	(obj:2)
t_x_564                                             1 	(obj:27)
t_x_565                                             1 	(obj:2)
t_x_569                                             1 	(obj:9)
t_x_577                                             1 	(obj:10)
t_x_578                                             1 	(obj:3)
t_x_582                                             1 	(obj:10)
t_x_584                                             1 	(obj:2)
t_x_588                                             1 	(obj:59)
t_x_589                                             1 	(obj:17)
t_x_591                                             1 	(obj:0)
t_x_593                                             1 	(obj:52)
t_x_598                                             1 	(obj:16)
t_x_601                                             1 	(obj:0)
t_x_611                                             1 	(obj:54)
t_x_612                                             1 	(obj:16)
t_x_614                                             1 	(obj:25)
t_x_618                                             1 	(obj:10)
t_x_626                                             1 	(obj:19)
t_x_628                                             1 	(obj:8)
t_x_631                                             1 	(obj:42)
t_x_637                                             1 	(obj:41)
t_x_639                                             1 	(obj:7)
t_x_640                                             1 	(obj:5)
t_x_643                                             1 	(obj:15)
t_x_654                                             1 	(obj:12)
t_x_658                                             1 	(obj:1)
t_x_659                                             1 	(obj:19)
t_x_660                                             1 	(obj:16)
t_x_665                                             1 	(obj:38)
t_x_673                                             1 	(obj:20)
t_x_674                                             1 	(obj:10)
t_x_677                                             1 	(obj:1)
t_x_679                                             1 	(obj:27)
t_x_683                                             1 	(obj:11)
t_x_685                                             1 	(obj:2)
t_x_687                                             1 	(obj:24)
t_x_692                                             1 	(obj:13)
t_x_695                                             1 	(obj:34)
t_x_697                                             1 	(obj:19)
t_x_701                                             1 	(obj:31)
t_x_704                                             1 	(obj:17)
t_x_706                                             1 	(obj:20)
t_x_709                                             1 	(obj:43)
t_x_711                                             1 	(obj:3)
t_x_712                                             1 	(obj:12)
t_x_715                                             1 	(obj:17)
t_x_719                                             1 	(obj:23)
t_x_723                                             1 	(obj:2)
t_x_725                                             1 	(obj:1)
t_x_727                                             1 	(obj:15)
t_x_733                                             1 	(obj:49)
t_x_738                                             1 	(obj:3)
t_x_740                                             1 	(obj:18)
t_x_741                                             1 	(obj:12)
t_x_744                                             1 	(obj:26)
t_x_748                                             1 	(obj:31)
t_x_751                                             1 	(obj:16)
t_x_761                                             1 	(obj:20)
t_x_763                                             1 	(obj:6)
t_x_768                                             1 	(obj:28)
t_x_769                                             1 	(obj:19)
t_x_778                                             1 	(obj:19)
t_x_779                                             1 	(obj:13)
t_x_784                                             1 	(obj:19)
t_x_785                                             1 	(obj:46)
t_x_794                                             1 	(obj:53)
t_x_795                                             1 	(obj:5)
t_x_796                                             1 	(obj:40)
t_x_798                                             1 	(obj:19)
t_x_802                                             1 	(obj:20)
t_x_803                                             1 	(obj:49)
t_x_809                                             1 	(obj:13)
t_x_812                                             1 	(obj:23)
t_x_813                                             1 	(obj:40)
t_x_814                                             1 	(obj:25)
t_x_820                                             1 	(obj:5)
t_x_823                                             1 	(obj:12)
t_x_826                                             1 	(obj:9)
t_x_828                                             1 	(obj:18)
t_x_831                                             1 	(obj:17)
t_x_836                                             1 	(obj:43)
t_x_842                                             1 	(obj:4)
t_x_848                                             1 	(obj:5)
t_x_852                                             1 	(obj:32)
t_x_855                                             1 	(obj:4)
t_x_858                                             1 	(obj:10)
t_x_859                                             1 	(obj:19)
t_x_860                                             1 	(obj:15)
t_x_862                                             1 	(obj:21)
t_x_863                                             1 	(obj:21)
t_x_864                                             1 	(obj:22)
t_x_867                                             1 	(obj:11)
t_x_870                                             1 	(obj:35)
t_x_874                                             1 	(obj:8)
t_x_875                                             1 	(obj:28)
t_x_876                                             1 	(obj:17)
t_x_877                                             1 	(obj:20)
t_x_879                                             1 	(obj:6)
t_x_882                                             1 	(obj:8)
t_x_884                                             1 	(obj:34)
t_x_887                                             1 	(obj:32)
t_x_895                                             1 	(obj:23)
t_x_897                                             1 	(obj:28)
t_x_901                                             1 	(obj:4)
t_x_905                                             1 	(obj:32)
t_x_907                                             1 	(obj:32)
t_x_908                                             1 	(obj:20)
t_x_910                                             1 	(obj:9)
t_x_911                                             1 	(obj:17)
t_x_916                                             1 	(obj:2)
t_x_917                                             1 	(obj:8)
t_x_925                                             1 	(obj:14)
t_x_931                                             1 	(obj:30)
t_x_937                                             1 	(obj:24)
t_x_941                                             1 	(obj:3)
t_x_943                                             1 	(obj:6)
t_x_944                                             1 	(obj:33)
t_x_945                                             1 	(obj:20)
t_x_950                                             1 	(obj:17)
t_x_951                                             1 	(obj:40)
t_x_952                                             1 	(obj:33)
t_x_958                                             1 	(obj:0)
t_x_961                                             1 	(obj:1)
t_x_963                                             1 	(obj:6)
t_x_972                                             1 	(obj:20)
t_x_978                                             1 	(obj:27)
t_x_983                                             1 	(obj:23)
t_x_985                                             1 	(obj:36)
t_x_987                                             1 	(obj:16)
t_x_989                                             1 	(obj:14)
t_x_991                                             1 	(obj:25)
t_x_994                                             1 	(obj:3)
t_x_995                                             1 	(obj:30)
t_x_999                                             1 	(obj:39)
t_x_1000                                            1 	(obj:18)
t_x_1001                                            1 	(obj:17)
t_x_1002                                            1 	(obj:39)
t_x_1003                                            1 	(obj:34)
t_x_1005                                            1 	(obj:40)
t_x_1006                                            1 	(obj:36)
t_x_1008                                            1 	(obj:17)
t_x_1011                                            1 	(obj:24)
t_x_1013                                            1 	(obj:25)
t_x_1014                                            1 	(obj:7)
t_x_1022                                            1 	(obj:14)
t_x_1027                                            1 	(obj:9)
t_x_1033                                            1 	(obj:7)
t_x_1035                                            1 	(obj:4)
t_x_1040                                            1 	(obj:11)
t_x_1041                                            1 	(obj:5)
t_x_1044                                            1 	(obj:66)
t_x_1046                                            1 	(obj:32)
t_x_1048                                            1 	(obj:2)
t_x_1052                                            1 	(obj:44)
t_x_1053                                            1 	(obj:8)
t_x_1055                                            1 	(obj:13)
t_x_1056                                            1 	(obj:13)
t_x_1058                                            1 	(obj:2)
t_x_1061                                            1 	(obj:49)
t_x_1068                                            1 	(obj:16)
t_x_1070                                            1 	(obj:44)
t_x_1084                                            1 	(obj:3)
t_x_1088                                            1 	(obj:15)
t_x_1093                                            1 	(obj:25)
t_x_1097                                            1 	(obj:10)
t_x_1100                                            1 	(obj:13)
t_x_1101                                            1 	(obj:8)
t_x_1102                                            1 	(obj:11)
t_x_1111                                            1 	(obj:12)
t_x_1113                                            1 	(obj:26)
t_x_1115                                            1 	(obj:29)
t_x_1116                                            1 	(obj:30)
t_x_1124                                            1 	(obj:33)
t_x_1125                                            1 	(obj:2)
t_x_1131                                            1 	(obj:0)
t_x_1133                                            1 	(obj:17)
t_x_1140                                            1 	(obj:5)
t_x_1141                                            1 	(obj:29)
t_x_1149                                            1 	(obj:11)
t_x_1150                                            1 	(obj:27)
t_x_1153                                            1 	(obj:20)
t_x_1155                                            1 	(obj:1)
t_x_1157                                            1 	(obj:0)
t_x_1167                                            1 	(obj:5)
t_x_1186                                            1 	(obj:33)
t_x_1189                                            1 	(obj:8)
t_x_1192                                            1 	(obj:8)
t_x_1199                                            1 	(obj:10)
t_x_1200                                            1 	(obj:29)
t_x_1202                                            1 	(obj:21)
t_x_1205                                            1 	(obj:46)
t_x_1207                                            1 	(obj:21)
t_x_1208                                            1 	(obj:25)
t_x_1211                                            1 	(obj:25)
t_x_1218                                            1 	(obj:4)
t_x_1219                                            1 	(obj:32)
t_x_1222                                            1 	(obj:32)
t_x_1228                                            1 	(obj:5)
t_x_1229                                            1 	(obj:3)
t_x_1231                                            1 	(obj:5)
t_x_1233                                            1 	(obj:20)
t_x_1240                                            1 	(obj:15)
t_x_1241                                            1 	(obj:13)
t_x_1244                                            1 	(obj:31)
t_x_1247                                            1 	(obj:48)
t_x_1251                                            1 	(obj:20)
t_x_1254                                            1 	(obj:46)
t_x_1255                                            1 	(obj:38)
t_x_1258                                            1 	(obj:16)
t_x_1260                                            1 	(obj:4)
t_x_1273                                            1 	(obj:30)
t_x_1274                                            1 	(obj:17)
t_x_1276                                            1 	(obj:20)
t_x_1281                                            1 	(obj:3)
t_x_1283                                            1 	(obj:17)
t_x_1288                                            1 	(obj:17)
t_x_1289                                            1 	(obj:26)
t_x_1290                                            1 	(obj:27)
t_x_1292                                            1 	(obj:17)
t_x_1295                                            1 	(obj:14)
t_x_1298                                            1 	(obj:32)
t_x_1301                                            1 	(obj:37)
t_x_1302                                            1 	(obj:10)
t_x_1305                                            1 	(obj:2)
t_x_1307                                            1 	(obj:15)
t_x_1310                                            1 	(obj:34)
t_x_1312                                            1 	(obj:26)
t_x_1315                                            1 	(obj:17)
t_x_1324                                            1 	(obj:9)
t_x_1327                                            1 	(obj:49)
t_x_1329                                            1 	(obj:32)
t_x_1331                                            1 	(obj:12)
t_x_1336                                            1 	(obj:32)
t_x_1337                                            1 	(obj:29)
t_x_1342                                            1 	(obj:18)
t_x_1348                                            1 	(obj:20)
t_x_1353                                            1 	(obj:57)
t_x_1356                                            1 	(obj:16)
t_x_1358                                            1 	(obj:58)
t_x_1365                                            1 	(obj:1)
t_x_1366                                            1 	(obj:26)
t_x_1369                                            1 	(obj:59)
t_x_1371                                            1 	(obj:40)
t_x_1373                                            1 	(obj:14)
t_x_1378                                            1 	(obj:20)
t_x_1381                                            1 	(obj:15)
t_x_1382                                            1 	(obj:19)
t_x_1388                                            1 	(obj:39)
t_x_1398                                            1 	(obj:16)
t_x_1402                                            1 	(obj:24)
t_x_1403                                            1 	(obj:46)
t_x_1406                                            1 	(obj:10)
t_x_1407                                            1 	(obj:5)
t_x_1412                                            1 	(obj:3)
t_x_1422                                            1 	(obj:7)
t_x_1423                                            1 	(obj:17)
t_x_1424                                            1 	(obj:16)
t_x_1428                                            1 	(obj:22)
t_x_1429                                            1 	(obj:13)
t_x_1432                                            1 	(obj:9)
t_x_1436                                            1 	(obj:24)
t_x_1438                                            1 	(obj:3)
t_x_1442                                            1 	(obj:21)
t_x_1444                                            1 	(obj:49)
t_x_1448                                            1 	(obj:8)
t_x_1451                                            1 	(obj:46)
t_x_1456                                            1 	(obj:25)
t_x_1458                                            1 	(obj:10)
t_x_1461                                            1 	(obj:3)
t_x_1472                                            1 	(obj:27)
t_x_1474                                            1 	(obj:2)
t_x_1475                                            1 	(obj:35)
t_x_1477                                            1 	(obj:3)
t_x_1478                                            1 	(obj:0)
t_x_1483                                            1 	(obj:19)
t_x_1488                                            1 	(obj:16)
t_x_1489                                            1 	(obj:21)
t_x_1490                                            1 	(obj:23)
t_x_1491                                            1 	(obj:10)
t_x_1493                                            1 	(obj:7)
t_x_1496                                            1 	(obj:24)
t_x_1506                                            1 	(obj:0)
t_x_1509                                            1 	(obj:32)
t_x_1510                                            1 	(obj:0)
t_x_1515                                            1 	(obj:18)
t_x_1520                                            1 	(obj:23)
t_x_1524                                            1 	(obj:14)
t_x_1526                                            1 	(obj:4)
t_x_1528                                            1 	(obj:4)
t_x_1538                                            1 	(obj:24)
t_x_1550                                            1 	(obj:11)
t_x_1554                                            1 	(obj:17)
t_x_1557                                            1 	(obj:9)
t_x_1561                                            1 	(obj:20)
t_x_1565                                            1 	(obj:9)
t_x_1567                                            1 	(obj:20)
t_x_1569                                            1 	(obj:54)
t_x_1571                                            1 	(obj:8)
t_x_1576                                            1 	(obj:1)
t_x_1583                                            1 	(obj:14)
t_x_1585                                            1 	(obj:17)
t_x_1588                                            1 	(obj:7)
t_x_1590                                            1 	(obj:4)
t_x_1595                                            1 	(obj:42)
t_x_1604                                            1 	(obj:36)
t_x_1610                                            1 	(obj:15)
t_x_1618                                            1 	(obj:24)
t_x_1619                                            1 	(obj:7)
t_x_1621                                            1 	(obj:18)
t_x_1625                                            1 	(obj:14)
t_x_1629                                            1 	(obj:33)
t_x_1631                                            1 	(obj:1)
t_x_1632                                            1 	(obj:36)
t_x_1634                                            1 	(obj:8)
t_x_1635                                            1 	(obj:29)
t_x_1639                                            1 	(obj:15)
t_x_1644                                            1 	(obj:42)
t_x_1653                                            1 	(obj:4)
t_x_1654                                            1 	(obj:19)
t_x_1659                                            1 	(obj:34)
t_x_1660                                            1 	(obj:7)
t_x_1664                                            1 	(obj:10)
t_x_1669                                            1 	(obj:18)
t_x_1672                                            1 	(obj:4)
t_x_1673                                            1 	(obj:48)
t_x_1676                                            1 	(obj:41)
t_x_1679                                            1 	(obj:2)
t_x_1681                                            1 	(obj:3)
t_x_1682                                            1 	(obj:18)
t_x_1684                                            1 	(obj:12)
t_x_1685                                            1 	(obj:21)
t_x_1688                                            1 	(obj:5)
t_x_1691                                            1 	(obj:8)
t_x_1693                                            1 	(obj:18)
t_x_1695                                            1 	(obj:16)
t_x_1696                                            1 	(obj:7)
t_x_1700                                            1 	(obj:28)
t_x_1701                                            1 	(obj:12)
t_x_1704                                            1 	(obj:34)
t_x_1712                                            1 	(obj:22)
t_x_1715                                            1 	(obj:31)
t_x_1719                                            1 	(obj:14)
t_x_1728                                            1 	(obj:26)
t_x_1729                                            1 	(obj:0)
t_x_1733                                            1 	(obj:47)
t_x_1738                                            1 	(obj:74)
t_x_1742                                            1 	(obj:19)
t_x_1748                                            1 	(obj:26)
t_x_1751                                            1 	(obj:28)
t_x_1759                                            1 	(obj:30)
t_x_1763                                            1 	(obj:40)
t_x_1767                                            1 	(obj:0)
t_x_1770                                            1 	(obj:22)
t_x_1772                                            1 	(obj:33)
t_x_1777                                            1 	(obj:13)
t_x_1778                                            1 	(obj:16)
t_x_1782                                            1 	(obj:40)
t_x_1784                                            1 	(obj:11)
t_x_1787                                            1 	(obj:22)
t_x_1795                                            1 	(obj:14)
t_x_1801                                            1 	(obj:30)
t_x_1803                                            1 	(obj:13)
t_x_1807                                            1 	(obj:23)
t_x_1808                                            1 	(obj:23)
t_x_1810                                            1 	(obj:7)
t_x_1813                                            1 	(obj:7)
t_x_1817                                            1 	(obj:16)
t_x_1820                                            1 	(obj:13)
t_x_1821                                            1 	(obj:5)
t_x_1822                                            1 	(obj:17)
t_x_1823                                            1 	(obj:3)
t_x_1825                                            1 	(obj:14)
t_x_1826                                            1 	(obj:5)
t_x_1830                                            1 	(obj:2)
t_x_1832                                            1 	(obj:23)
t_x_1839                                            1 	(obj:4)
t_x_1843                                            1 	(obj:23)
t_x_1847                                            1 	(obj:28)
t_x_1850                                            1 	(obj:30)
t_x_1853                                            1 	(obj:23)
t_x_1854                                            1 	(obj:37)
t_x_1857                                            1 	(obj:6)
t_x_1868                                            1 	(obj:5)
t_x_1870                                            1 	(obj:14)
t_x_1877                                            1 	(obj:3)
t_x_1881                                            1 	(obj:6)
t_x_1884                                            1 	(obj:30)
t_x_1885                                            1 	(obj:2)
t_x_1887                                            1 	(obj:39)
t_x_1892                                            1 	(obj:8)
t_x_1895                                            1 	(obj:22)
t_x_1906                                            1 	(obj:28)
t_x_1908                                            1 	(obj:20)
t_x_1910                                            1 	(obj:31)
t_x_1917                                            1 	(obj:24)
t_x_1922                                            1 	(obj:19)
t_x_1925                                            1 	(obj:10)
t_x_1927                                            1 	(obj:17)
t_x_1942                                            1 	(obj:3)
t_x_1944                                            1 	(obj:38)
t_x_1945                                            1 	(obj:21)
t_x_1947                                            1 	(obj:21)
t_x_1948                                            1 	(obj:5)
t_x_1951                                            1 	(obj:33)
t_x_1953                                            1 	(obj:43)
t_x_1957                                            1 	(obj:23)
t_x_1960                                            1 	(obj:1)
t_x_1961                                            1 	(obj:4)
t_x_1965                                            1 	(obj:23)
t_x_1966                                            1 	(obj:7)
t_x_1978                                            1 	(obj:3)
t_x_1982                                            1 	(obj:10)
t_x_1988                                            1 	(obj:3)
t_x_1991                                            1 	(obj:17)
t_x_1999                                            1 	(obj:5)
